
Log started (V11.0.0) Wed May 14 22:44:29 2008

Tried aggregator 1 time.
Reduced MIP has 140 rows, 4001 columns, and 8040 nonzeros.
Presolve time =    0.03 sec.
Clique table members: 100.
MIP emphasis: balance optimality and feasibility.
MIP search method: dynamic search.
Parallel mode: none, using 1 thread.
Root relaxation solution time =    0.14 sec.

        Nodes                                         Cuts/
   Node  Left     Objective  IInf  Best Integer     Best Node    ItCnt     Gap

*     0+    0                        10943.0000      250.3121      421   97.71%
*     0+    0                          302.0000      250.3121      421   17.12%
      0     0      251.5497    69      302.0000      Fract: 4      463   16.71%
*     0+    0                          301.0000      251.5497      463   16.43%
      0     0      275.1663    88      301.0000      Cuts: 40     1503    8.58%
      0     0      275.1663   115      301.0000   MIRcuts: 31     1694    8.58%
      0     0      275.1663   129      301.0000      Cuts: 36     1876    8.58%
*     0+    0                          300.0000      275.1663     1876    8.28%
      0     2      275.1663   129      300.0000      275.1663     1876    8.28%
    100    80      276.5685    81      300.0000      275.1779     6409    8.27%
    200   145      276.0000    69      300.0000      275.1779    20388    8.27%
    300   206      276.6437    74      300.0000      275.1779    28478    8.27%
    400   276      276.0000    69      300.0000      275.1779    35668    8.27%
    500   344      276.0000    61      300.0000      275.1779    39189    8.27%

Cover cuts applied:  25
Flow cuts applied:  3
Mixed integer rounding cuts applied:  49
Zero-half cuts applied:  5
Gomory fractional cuts applied:  1

Solution pool: 4 solutions saved.

MIP - Integer optimal solution:  Objective = 3.0000000000e+002
Solution time =   21.86 sec.  Iterations = 40286  Nodes = 511 (351)


Incumbent solution
Variable Name           Solution Value
Cmax                        300.000000
X_1_7                         1.000000
X_2_10                        1.000000
X_3_16                        1.000000
X_4_36                        1.000000
X_5_23                        1.000000
X_6_11                        1.000000
X_7_17                        1.000000
X_8_18                        1.000000
X_9_2                         1.000000
X_10_3                        1.000000
X_11_31                       1.000000
X_12_22                       1.000000
X_13_28                       1.000000
X_14_17                       1.000000
X_15_12                       1.000000
X_16_35                       1.000000
X_17_11                       1.000000
X_18_21                       1.000000
X_19_36                       1.000000
X_20_29                       1.000000
X_21_31                       1.000000
X_22_10                       1.000000
X_23_12                       1.000000
X_24_9                        1.000000
X_25_21                       1.000000
X_26_25                       1.000000
X_27_32                       1.000000
X_28_30                       1.000000
X_29_18                       1.000000
X_30_8                        1.000000
X_31_34                       1.000000
X_32_13                       1.000000
X_33_40                       1.000000
X_34_20                       1.000000
X_35_40                       1.000000
X_36_9                        1.000000
X_37_20                       1.000000
X_38_3                        1.000000
X_39_13                       1.000000
X_40_4                        1.000000
X_41_30                       1.000000
X_42_24                       1.000000
X_43_21                       1.000000
X_44_3                        1.000000
X_45_29                       1.000000
X_46_2                        1.000000
X_47_27                       1.000000
X_48_1                        1.000000
X_49_34                       1.000000
X_50_11                       1.000000
X_51_7                        1.000000
X_52_1                        1.000000
X_53_32                       1.000000
X_54_35                       1.000000
X_55_15                       1.000000
X_56_27                       1.000000
X_57_31                       1.000000
X_58_33                       1.000000
X_59_5                        1.000000
X_60_37                       1.000000
X_61_28                       1.000000
X_62_26                       1.000000
X_63_37                       1.000000
X_64_22                       1.000000
X_65_16                       1.000000
X_66_33                       1.000000
X_67_23                       1.000000
X_68_14                       1.000000
X_69_19                       1.000000
X_70_38                       1.000000
X_71_18                       1.000000
X_72_4                        1.000000
X_73_13                       1.000000
X_74_38                       1.000000
X_75_6                        1.000000
X_76_33                       1.000000
X_77_1                        1.000000
X_78_5                        1.000000
X_79_12                       1.000000
X_80_10                       1.000000
X_81_17                       1.000000
X_82_19                       1.000000
X_83_14                       1.000000
X_84_30                       1.000000
X_85_24                       1.000000
X_86_19                       1.000000
X_87_15                       1.000000
X_88_39                       1.000000
X_89_38                       1.000000
X_90_37                       1.000000
X_91_25                       1.000000
X_92_34                       1.000000
X_93_26                       1.000000
X_94_6                        1.000000
X_95_39                       1.000000
X_96_14                       1.000000
X_97_9                        1.000000
X_98_8                        1.000000
X_99_24                       1.000000
X_100_20                      1.000000
All other variables in the range 1-4001 are 0.
